NAME : instances/50-tsp/instance-23.tsp
COMMENT : No comment
TYPE : TSP
DIMENSION: 50
EDGE_WEIGHT_TYPE : EUC_2D
NODE_COORD_SECTION
1 1288 675 
2 376 1704 
3 1659 276 
4 62 1285 
5 693 150 
6 834 1224 
7 308 1023 
8 479 1337 
9 1720 1380 
10 1633 1692 
11 121 199 
12 1914 1031 
13 1815 1289 
14 557 150 
15 200 1027 
16 630 1239 
17 614 360 
18 535 145 
19 907 1480 
20 1070 1094 
21 900 1498 
22 900 1776 
23 1318 1893 
24 1786 1744 
25 1330 939 
26 943 1903 
27 1370 882 
28 714 1343 
29 584 1144 
30 1770 1585 
31 886 859 
32 1450 45 
33 931 1707 
34 1369 967 
35 756 189 
36 724 1799 
37 252 1627 
38 1525 235 
39 386 1299 
40 195 14 
41 685 1419 
42 417 271 
43 541 751 
44 1258 362 
45 1047 1855 
46 1881 895 
47 127 593 
48 837 1889 
49 1717 1319 
50 1942 1950 
EOF
